
;this file is automatically generated: Thu Jan 02 16:54:47 GMT 2020

;declarations generated

(declare-fun oclExcludes ( Int Int) Bool)
(declare-fun Cardinality ( Int) Int)
(declare-fun obj_8f18a3d7_b62b_4af6_8d2a_348aa742fa02 ( Int) Int)
(declare-fun type_53e46d0b_6f44_47d9_8179_4ed3414343f9_Class49 ( Int) Bool)
(declare-fun oclSelect ( Int Bool) Int)
(declare-fun Enum0 ( Int) Int)
(declare-fun Enum1 ( Int) Int)
(declare-fun Enum2 ( Int) Int)
(declare-fun container_ ( Int) Int)
(declare-fun oclIncludes ( Int Int) Bool)
(declare-fun ObjAt ( Int Int) Int)

;formula(s) generated
(assert (! (forall ((v Int)) (=> ( type_53e46d0b_6f44_47d9_8179_4ed3414343f9_Class49 v )  (= ( Enum1 ( obj_8f18a3d7_b62b_4af6_8d2a_348aa742fa02 v )  )  8))):named l0))
(assert (! (forall ((v Int)) (=> ( type_53e46d0b_6f44_47d9_8179_4ed3414343f9_Class49 v )  (not (= ( Enum1 ( obj_8f18a3d7_b62b_4af6_8d2a_348aa742fa02 v )  )  8) ))):named l1))
(assert (exists ((o Int)) ( type_53e46d0b_6f44_47d9_8179_4ed3414343f9_Class49 ( obj_8f18a3d7_b62b_4af6_8d2a_348aa742fa02 o )  ) ))

 ;end of formula 